(set-option :produce-models true)
(declare-fun iniMes_mes0_aceite0 () Int)
(declare-fun comprado_mes0_aceite0 () Int)
(declare-fun refinado_mes0_aceite0 () Int)
(declare-fun iniMes_mes0_aceite1 () Int)
(declare-fun comprado_mes0_aceite1 () Int)
(declare-fun refinado_mes0_aceite1 () Int)
(declare-fun iniMes_mes0_aceite2 () Int)
(declare-fun comprado_mes0_aceite2 () Int)
(declare-fun refinado_mes0_aceite2 () Int)
(declare-fun iniMes_mes0_aceite3 () Int)
(declare-fun comprado_mes0_aceite3 () Int)
(declare-fun refinado_mes0_aceite3 () Int)
(declare-fun iniMes_mes0_aceite4 () Int)
(declare-fun comprado_mes0_aceite4 () Int)
(declare-fun refinado_mes0_aceite4 () Int)
(declare-fun iniMes_mes0_aceite5 () Int)
(declare-fun comprado_mes0_aceite5 () Int)
(declare-fun refinado_mes0_aceite5 () Int)
(declare-fun iniMes_mes1_aceite0 () Int)
(declare-fun comprado_mes1_aceite0 () Int)
(declare-fun refinado_mes1_aceite0 () Int)
(declare-fun iniMes_mes1_aceite1 () Int)
(declare-fun comprado_mes1_aceite1 () Int)
(declare-fun refinado_mes1_aceite1 () Int)
(declare-fun iniMes_mes1_aceite2 () Int)
(declare-fun comprado_mes1_aceite2 () Int)
(declare-fun refinado_mes1_aceite2 () Int)
(declare-fun iniMes_mes1_aceite3 () Int)
(declare-fun comprado_mes1_aceite3 () Int)
(declare-fun refinado_mes1_aceite3 () Int)
(declare-fun iniMes_mes1_aceite4 () Int)
(declare-fun comprado_mes1_aceite4 () Int)
(declare-fun refinado_mes1_aceite4 () Int)
(declare-fun iniMes_mes1_aceite5 () Int)
(declare-fun comprado_mes1_aceite5 () Int)
(declare-fun refinado_mes1_aceite5 () Int)
(declare-fun iniMes_mes2_aceite0 () Int)
(declare-fun comprado_mes2_aceite0 () Int)
(declare-fun refinado_mes2_aceite0 () Int)
(declare-fun iniMes_mes2_aceite1 () Int)
(declare-fun comprado_mes2_aceite1 () Int)
(declare-fun refinado_mes2_aceite1 () Int)
(declare-fun iniMes_mes2_aceite2 () Int)
(declare-fun comprado_mes2_aceite2 () Int)
(declare-fun refinado_mes2_aceite2 () Int)
(declare-fun iniMes_mes2_aceite3 () Int)
(declare-fun comprado_mes2_aceite3 () Int)
(declare-fun refinado_mes2_aceite3 () Int)
(declare-fun iniMes_mes2_aceite4 () Int)
(declare-fun comprado_mes2_aceite4 () Int)
(declare-fun refinado_mes2_aceite4 () Int)
(declare-fun iniMes_mes2_aceite5 () Int)
(declare-fun comprado_mes2_aceite5 () Int)
(declare-fun refinado_mes2_aceite5 () Int)
(declare-fun iniMes_mes3_aceite0 () Int)
(declare-fun comprado_mes3_aceite0 () Int)
(declare-fun refinado_mes3_aceite0 () Int)
(declare-fun iniMes_mes3_aceite1 () Int)
(declare-fun comprado_mes3_aceite1 () Int)
(declare-fun refinado_mes3_aceite1 () Int)
(declare-fun iniMes_mes3_aceite2 () Int)
(declare-fun comprado_mes3_aceite2 () Int)
(declare-fun refinado_mes3_aceite2 () Int)
(declare-fun iniMes_mes3_aceite3 () Int)
(declare-fun comprado_mes3_aceite3 () Int)
(declare-fun refinado_mes3_aceite3 () Int)
(declare-fun iniMes_mes3_aceite4 () Int)
(declare-fun comprado_mes3_aceite4 () Int)
(declare-fun refinado_mes3_aceite4 () Int)
(declare-fun iniMes_mes3_aceite5 () Int)
(declare-fun comprado_mes3_aceite5 () Int)
(declare-fun refinado_mes3_aceite5 () Int)
(declare-fun totalRefinado_mes0 () Int)
(declare-fun totalRefinado_mes1 () Int)
(declare-fun totalRefinado_mes2 () Int)
(declare-fun totalRefinado_mes3 () Int)
(declare-fun ganancias () Int)
(declare-fun costeAlmacMes () Int)
(declare-fun costeAceiteCompra () Int)
(declare-fun costes () Int)
(declare-fun beneficio () Int)
(assert (<= 0 iniMes_mes0_aceite0 ) )
(assert (<= iniMes_mes0_aceite0 1500 ) )
(assert (<= 0 comprado_mes0_aceite0 ) )
(assert (<= comprado_mes0_aceite0 1500 ) )
(assert (<= 0 refinado_mes0_aceite0 ) )
(assert (<= refinado_mes0_aceite0 1500 ) )
(assert (<= 0 iniMes_mes0_aceite1 ) )
(assert (<= iniMes_mes0_aceite1 1500 ) )
(assert (<= 0 comprado_mes0_aceite1 ) )
(assert (<= comprado_mes0_aceite1 1500 ) )
(assert (<= 0 refinado_mes0_aceite1 ) )
(assert (<= refinado_mes0_aceite1 1500 ) )
(assert (<= 0 iniMes_mes0_aceite2 ) )
(assert (<= iniMes_mes0_aceite2 1500 ) )
(assert (<= 0 comprado_mes0_aceite2 ) )
(assert (<= comprado_mes0_aceite2 1500 ) )
(assert (<= 0 refinado_mes0_aceite2 ) )
(assert (<= refinado_mes0_aceite2 1500 ) )
(assert (<= 0 iniMes_mes0_aceite3 ) )
(assert (<= iniMes_mes0_aceite3 1500 ) )
(assert (<= 0 comprado_mes0_aceite3 ) )
(assert (<= comprado_mes0_aceite3 1500 ) )
(assert (<= 0 refinado_mes0_aceite3 ) )
(assert (<= refinado_mes0_aceite3 1500 ) )
(assert (<= 0 iniMes_mes0_aceite4 ) )
(assert (<= iniMes_mes0_aceite4 1500 ) )
(assert (<= 0 comprado_mes0_aceite4 ) )
(assert (<= comprado_mes0_aceite4 1500 ) )
(assert (<= 0 refinado_mes0_aceite4 ) )
(assert (<= refinado_mes0_aceite4 1500 ) )
(assert (<= 0 iniMes_mes0_aceite5 ) )
(assert (<= iniMes_mes0_aceite5 1500 ) )
(assert (<= 0 comprado_mes0_aceite5 ) )
(assert (<= comprado_mes0_aceite5 1500 ) )
(assert (<= 0 refinado_mes0_aceite5 ) )
(assert (<= refinado_mes0_aceite5 1500 ) )
(assert (<= 0 iniMes_mes1_aceite0 ) )
(assert (<= iniMes_mes1_aceite0 1500 ) )
(assert (<= 0 comprado_mes1_aceite0 ) )
(assert (<= comprado_mes1_aceite0 1500 ) )
(assert (<= 0 refinado_mes1_aceite0 ) )
(assert (<= refinado_mes1_aceite0 1500 ) )
(assert (<= 0 iniMes_mes1_aceite1 ) )
(assert (<= iniMes_mes1_aceite1 1500 ) )
(assert (<= 0 comprado_mes1_aceite1 ) )
(assert (<= comprado_mes1_aceite1 1500 ) )
(assert (<= 0 refinado_mes1_aceite1 ) )
(assert (<= refinado_mes1_aceite1 1500 ) )
(assert (<= 0 iniMes_mes1_aceite2 ) )
(assert (<= iniMes_mes1_aceite2 1500 ) )
(assert (<= 0 comprado_mes1_aceite2 ) )
(assert (<= comprado_mes1_aceite2 1500 ) )
(assert (<= 0 refinado_mes1_aceite2 ) )
(assert (<= refinado_mes1_aceite2 1500 ) )
(assert (<= 0 iniMes_mes1_aceite3 ) )
(assert (<= iniMes_mes1_aceite3 1500 ) )
(assert (<= 0 comprado_mes1_aceite3 ) )
(assert (<= comprado_mes1_aceite3 1500 ) )
(assert (<= 0 refinado_mes1_aceite3 ) )
(assert (<= refinado_mes1_aceite3 1500 ) )
(assert (<= 0 iniMes_mes1_aceite4 ) )
(assert (<= iniMes_mes1_aceite4 1500 ) )
(assert (<= 0 comprado_mes1_aceite4 ) )
(assert (<= comprado_mes1_aceite4 1500 ) )
(assert (<= 0 refinado_mes1_aceite4 ) )
(assert (<= refinado_mes1_aceite4 1500 ) )
(assert (<= 0 iniMes_mes1_aceite5 ) )
(assert (<= iniMes_mes1_aceite5 1500 ) )
(assert (<= 0 comprado_mes1_aceite5 ) )
(assert (<= comprado_mes1_aceite5 1500 ) )
(assert (<= 0 refinado_mes1_aceite5 ) )
(assert (<= refinado_mes1_aceite5 1500 ) )
(assert (<= 0 iniMes_mes2_aceite0 ) )
(assert (<= iniMes_mes2_aceite0 1500 ) )
(assert (<= 0 comprado_mes2_aceite0 ) )
(assert (<= comprado_mes2_aceite0 1500 ) )
(assert (<= 0 refinado_mes2_aceite0 ) )
(assert (<= refinado_mes2_aceite0 1500 ) )
(assert (<= 0 iniMes_mes2_aceite1 ) )
(assert (<= iniMes_mes2_aceite1 1500 ) )
(assert (<= 0 comprado_mes2_aceite1 ) )
(assert (<= comprado_mes2_aceite1 1500 ) )
(assert (<= 0 refinado_mes2_aceite1 ) )
(assert (<= refinado_mes2_aceite1 1500 ) )
(assert (<= 0 iniMes_mes2_aceite2 ) )
(assert (<= iniMes_mes2_aceite2 1500 ) )
(assert (<= 0 comprado_mes2_aceite2 ) )
(assert (<= comprado_mes2_aceite2 1500 ) )
(assert (<= 0 refinado_mes2_aceite2 ) )
(assert (<= refinado_mes2_aceite2 1500 ) )
(assert (<= 0 iniMes_mes2_aceite3 ) )
(assert (<= iniMes_mes2_aceite3 1500 ) )
(assert (<= 0 comprado_mes2_aceite3 ) )
(assert (<= comprado_mes2_aceite3 1500 ) )
(assert (<= 0 refinado_mes2_aceite3 ) )
(assert (<= refinado_mes2_aceite3 1500 ) )
(assert (<= 0 iniMes_mes2_aceite4 ) )
(assert (<= iniMes_mes2_aceite4 1500 ) )
(assert (<= 0 comprado_mes2_aceite4 ) )
(assert (<= comprado_mes2_aceite4 1500 ) )
(assert (<= 0 refinado_mes2_aceite4 ) )
(assert (<= refinado_mes2_aceite4 1500 ) )
(assert (<= 0 iniMes_mes2_aceite5 ) )
(assert (<= iniMes_mes2_aceite5 1500 ) )
(assert (<= 0 comprado_mes2_aceite5 ) )
(assert (<= comprado_mes2_aceite5 1500 ) )
(assert (<= 0 refinado_mes2_aceite5 ) )
(assert (<= refinado_mes2_aceite5 1500 ) )
(assert (<= 0 iniMes_mes3_aceite0 ) )
(assert (<= iniMes_mes3_aceite0 1500 ) )
(assert (<= 0 comprado_mes3_aceite0 ) )
(assert (<= comprado_mes3_aceite0 1500 ) )
(assert (<= 0 refinado_mes3_aceite0 ) )
(assert (<= refinado_mes3_aceite0 1500 ) )
(assert (<= 0 iniMes_mes3_aceite1 ) )
(assert (<= iniMes_mes3_aceite1 1500 ) )
(assert (<= 0 comprado_mes3_aceite1 ) )
(assert (<= comprado_mes3_aceite1 1500 ) )
(assert (<= 0 refinado_mes3_aceite1 ) )
(assert (<= refinado_mes3_aceite1 1500 ) )
(assert (<= 0 iniMes_mes3_aceite2 ) )
(assert (<= iniMes_mes3_aceite2 1500 ) )
(assert (<= 0 comprado_mes3_aceite2 ) )
(assert (<= comprado_mes3_aceite2 1500 ) )
(assert (<= 0 refinado_mes3_aceite2 ) )
(assert (<= refinado_mes3_aceite2 1500 ) )
(assert (<= 0 iniMes_mes3_aceite3 ) )
(assert (<= iniMes_mes3_aceite3 1500 ) )
(assert (<= 0 comprado_mes3_aceite3 ) )
(assert (<= comprado_mes3_aceite3 1500 ) )
(assert (<= 0 refinado_mes3_aceite3 ) )
(assert (<= refinado_mes3_aceite3 1500 ) )
(assert (<= 0 iniMes_mes3_aceite4 ) )
(assert (<= iniMes_mes3_aceite4 1500 ) )
(assert (<= 0 comprado_mes3_aceite4 ) )
(assert (<= comprado_mes3_aceite4 1500 ) )
(assert (<= 0 refinado_mes3_aceite4 ) )
(assert (<= refinado_mes3_aceite4 1500 ) )
(assert (<= 0 iniMes_mes3_aceite5 ) )
(assert (<= iniMes_mes3_aceite5 1500 ) )
(assert (<= 0 comprado_mes3_aceite5 ) )
(assert (<= comprado_mes3_aceite5 1500 ) )
(assert (<= 0 refinado_mes3_aceite5 ) )
(assert (<= refinado_mes3_aceite5 1500 ) )
(assert (<= 0 totalRefinado_mes0 ) )
(assert (<= totalRefinado_mes0 9000 ) )
(assert (<= 0 totalRefinado_mes1 ) )
(assert (<= totalRefinado_mes1 9000 ) )
(assert (<= 0 totalRefinado_mes2 ) )
(assert (<= totalRefinado_mes2 9000 ) )
(assert (<= 0 totalRefinado_mes3 ) )
(assert (<= totalRefinado_mes3 9000 ) )
(assert (= iniMes_mes0_aceite0 100 ) )
(assert (= iniMes_mes0_aceite1 150 ) )
(assert (= iniMes_mes0_aceite2 200 ) )
(assert (= iniMes_mes0_aceite3 120 ) )
(assert (= iniMes_mes0_aceite4 170 ) )
(assert (= iniMes_mes0_aceite5 120 ) )
(assert (= 100 (- (+ iniMes_mes3_aceite0 comprado_mes3_aceite0 ) refinado_mes3_aceite0 ) ) )
(assert (= 150 (- (+ iniMes_mes3_aceite1 comprado_mes3_aceite1 ) refinado_mes3_aceite1 ) ) )
(assert (= 200 (- (+ iniMes_mes3_aceite2 comprado_mes3_aceite2 ) refinado_mes3_aceite2 ) ) )
(assert (= 120 (- (+ iniMes_mes3_aceite3 comprado_mes3_aceite3 ) refinado_mes3_aceite3 ) ) )
(assert (= 170 (- (+ iniMes_mes3_aceite4 comprado_mes3_aceite4 ) refinado_mes3_aceite4 ) ) )
(assert (= 120 (- (+ iniMes_mes3_aceite5 comprado_mes3_aceite5 ) refinado_mes3_aceite5 ) ) )
(assert (= iniMes_mes1_aceite0 (- (+ iniMes_mes0_aceite0 comprado_mes0_aceite0 ) refinado_mes0_aceite0 ) ) )
(assert (= iniMes_mes1_aceite1 (- (+ iniMes_mes0_aceite1 comprado_mes0_aceite1 ) refinado_mes0_aceite1 ) ) )
(assert (= iniMes_mes1_aceite2 (- (+ iniMes_mes0_aceite2 comprado_mes0_aceite2 ) refinado_mes0_aceite2 ) ) )
(assert (= iniMes_mes1_aceite3 (- (+ iniMes_mes0_aceite3 comprado_mes0_aceite3 ) refinado_mes0_aceite3 ) ) )
(assert (= iniMes_mes1_aceite4 (- (+ iniMes_mes0_aceite4 comprado_mes0_aceite4 ) refinado_mes0_aceite4 ) ) )
(assert (= iniMes_mes1_aceite5 (- (+ iniMes_mes0_aceite5 comprado_mes0_aceite5 ) refinado_mes0_aceite5 ) ) )
(assert (= iniMes_mes2_aceite0 (- (+ iniMes_mes1_aceite0 comprado_mes1_aceite0 ) refinado_mes1_aceite0 ) ) )
(assert (= iniMes_mes2_aceite1 (- (+ iniMes_mes1_aceite1 comprado_mes1_aceite1 ) refinado_mes1_aceite1 ) ) )
(assert (= iniMes_mes2_aceite2 (- (+ iniMes_mes1_aceite2 comprado_mes1_aceite2 ) refinado_mes1_aceite2 ) ) )
(assert (= iniMes_mes2_aceite3 (- (+ iniMes_mes1_aceite3 comprado_mes1_aceite3 ) refinado_mes1_aceite3 ) ) )
(assert (= iniMes_mes2_aceite4 (- (+ iniMes_mes1_aceite4 comprado_mes1_aceite4 ) refinado_mes1_aceite4 ) ) )
(assert (= iniMes_mes2_aceite5 (- (+ iniMes_mes1_aceite5 comprado_mes1_aceite5 ) refinado_mes1_aceite5 ) ) )
(assert (= iniMes_mes3_aceite0 (- (+ iniMes_mes2_aceite0 comprado_mes2_aceite0 ) refinado_mes2_aceite0 ) ) )
(assert (= iniMes_mes3_aceite1 (- (+ iniMes_mes2_aceite1 comprado_mes2_aceite1 ) refinado_mes2_aceite1 ) ) )
(assert (= iniMes_mes3_aceite2 (- (+ iniMes_mes2_aceite2 comprado_mes2_aceite2 ) refinado_mes2_aceite2 ) ) )
(assert (= iniMes_mes3_aceite3 (- (+ iniMes_mes2_aceite3 comprado_mes2_aceite3 ) refinado_mes2_aceite3 ) ) )
(assert (= iniMes_mes3_aceite4 (- (+ iniMes_mes2_aceite4 comprado_mes2_aceite4 ) refinado_mes2_aceite4 ) ) )
(assert (= iniMes_mes3_aceite5 (- (+ iniMes_mes2_aceite5 comprado_mes2_aceite5 ) refinado_mes2_aceite5 ) ) )
(assert (<= (+ refinado_mes0_aceite2 (+ refinado_mes0_aceite1 refinado_mes0_aceite0 ) ) 250 ) )
(assert (<= (+ refinado_mes1_aceite2 (+ refinado_mes1_aceite1 refinado_mes1_aceite0 ) ) 250 ) )
(assert (<= (+ refinado_mes2_aceite2 (+ refinado_mes2_aceite1 refinado_mes2_aceite0 ) ) 250 ) )
(assert (<= (+ refinado_mes3_aceite2 (+ refinado_mes3_aceite1 refinado_mes3_aceite0 ) ) 250 ) )
(assert (<= (+ refinado_mes0_aceite5 (+ refinado_mes0_aceite4 refinado_mes0_aceite3 ) ) 250 ) )
(assert (<= (+ refinado_mes1_aceite5 (+ refinado_mes1_aceite4 refinado_mes1_aceite3 ) ) 250 ) )
(assert (<= (+ refinado_mes2_aceite5 (+ refinado_mes2_aceite4 refinado_mes2_aceite3 ) ) 250 ) )
(assert (<= (+ refinado_mes3_aceite5 (+ refinado_mes3_aceite4 refinado_mes3_aceite3 ) ) 250 ) )
(assert (<= (+ comprado_mes0_aceite0 iniMes_mes0_aceite0 ) 1500 ) )
(assert (<= (+ comprado_mes0_aceite1 iniMes_mes0_aceite1 ) 1500 ) )
(assert (<= (+ comprado_mes0_aceite2 iniMes_mes0_aceite2 ) 1500 ) )
(assert (<= (+ comprado_mes0_aceite3 iniMes_mes0_aceite3 ) 1500 ) )
(assert (<= (+ comprado_mes0_aceite4 iniMes_mes0_aceite4 ) 1500 ) )
(assert (<= (+ comprado_mes0_aceite5 iniMes_mes0_aceite5 ) 1500 ) )
(assert (<= (+ comprado_mes1_aceite0 iniMes_mes1_aceite0 ) 1500 ) )
(assert (<= (+ comprado_mes1_aceite1 iniMes_mes1_aceite1 ) 1500 ) )
(assert (<= (+ comprado_mes1_aceite2 iniMes_mes1_aceite2 ) 1500 ) )
(assert (<= (+ comprado_mes1_aceite3 iniMes_mes1_aceite3 ) 1500 ) )
(assert (<= (+ comprado_mes1_aceite4 iniMes_mes1_aceite4 ) 1500 ) )
(assert (<= (+ comprado_mes1_aceite5 iniMes_mes1_aceite5 ) 1500 ) )
(assert (<= (+ comprado_mes2_aceite0 iniMes_mes2_aceite0 ) 1500 ) )
(assert (<= (+ comprado_mes2_aceite1 iniMes_mes2_aceite1 ) 1500 ) )
(assert (<= (+ comprado_mes2_aceite2 iniMes_mes2_aceite2 ) 1500 ) )
(assert (<= (+ comprado_mes2_aceite3 iniMes_mes2_aceite3 ) 1500 ) )
(assert (<= (+ comprado_mes2_aceite4 iniMes_mes2_aceite4 ) 1500 ) )
(assert (<= (+ comprado_mes2_aceite5 iniMes_mes2_aceite5 ) 1500 ) )
(assert (<= (+ comprado_mes3_aceite0 iniMes_mes3_aceite0 ) 1500 ) )
(assert (<= (+ comprado_mes3_aceite1 iniMes_mes3_aceite1 ) 1500 ) )
(assert (<= (+ comprado_mes3_aceite2 iniMes_mes3_aceite2 ) 1500 ) )
(assert (<= (+ comprado_mes3_aceite3 iniMes_mes3_aceite3 ) 1500 ) )
(assert (<= (+ comprado_mes3_aceite4 iniMes_mes3_aceite4 ) 1500 ) )
(assert (<= (+ comprado_mes3_aceite5 iniMes_mes3_aceite5 ) 1500 ) )
(assert (= totalRefinado_mes0 (+ refinado_mes0_aceite5 (+ refinado_mes0_aceite4 (+ refinado_mes0_aceite3 (+ refinado_mes0_aceite2 (+ refinado_mes0_aceite1 refinado_mes0_aceite0 ) ) ) ) ) ) )
(assert (= totalRefinado_mes1 (+ refinado_mes1_aceite5 (+ refinado_mes1_aceite4 (+ refinado_mes1_aceite3 (+ refinado_mes1_aceite2 (+ refinado_mes1_aceite1 refinado_mes1_aceite0 ) ) ) ) ) ) )
(assert (= totalRefinado_mes2 (+ refinado_mes2_aceite5 (+ refinado_mes2_aceite4 (+ refinado_mes2_aceite3 (+ refinado_mes2_aceite2 (+ refinado_mes2_aceite1 refinado_mes2_aceite0 ) ) ) ) ) ) )
(assert (= totalRefinado_mes3 (+ refinado_mes3_aceite5 (+ refinado_mes3_aceite4 (+ refinado_mes3_aceite3 (+ refinado_mes3_aceite2 (+ refinado_mes3_aceite1 refinado_mes3_aceite0 ) ) ) ) ) ) )
(assert (<= (+ (* refinado_mes0_aceite5 4.9 ) (+ (* refinado_mes0_aceite4 5.1 ) (+ (* refinado_mes0_aceite3 4.3 ) (+ (* refinado_mes0_aceite2 2.8 ) (+ (* refinado_mes0_aceite1 6.1 ) (* refinado_mes0_aceite0 8.0 ) ) ) ) ) ) (* totalRefinado_mes0 7 ) ) )
(assert (>= (+ (* refinado_mes0_aceite5 4.9 ) (+ (* refinado_mes0_aceite4 5.1 ) (+ (* refinado_mes0_aceite3 4.3 ) (+ (* refinado_mes0_aceite2 2.8 ) (+ (* refinado_mes0_aceite1 6.1 ) (* refinado_mes0_aceite0 8.0 ) ) ) ) ) ) (* totalRefinado_mes0 3 ) ) )
(assert (<= (+ (* refinado_mes1_aceite5 4.9 ) (+ (* refinado_mes1_aceite4 5.1 ) (+ (* refinado_mes1_aceite3 4.3 ) (+ (* refinado_mes1_aceite2 2.8 ) (+ (* refinado_mes1_aceite1 6.1 ) (* refinado_mes1_aceite0 8.0 ) ) ) ) ) ) (* totalRefinado_mes1 7 ) ) )
(assert (>= (+ (* refinado_mes1_aceite5 4.9 ) (+ (* refinado_mes1_aceite4 5.1 ) (+ (* refinado_mes1_aceite3 4.3 ) (+ (* refinado_mes1_aceite2 2.8 ) (+ (* refinado_mes1_aceite1 6.1 ) (* refinado_mes1_aceite0 8.0 ) ) ) ) ) ) (* totalRefinado_mes1 3 ) ) )
(assert (<= (+ (* refinado_mes2_aceite5 4.9 ) (+ (* refinado_mes2_aceite4 5.1 ) (+ (* refinado_mes2_aceite3 4.3 ) (+ (* refinado_mes2_aceite2 2.8 ) (+ (* refinado_mes2_aceite1 6.1 ) (* refinado_mes2_aceite0 8.0 ) ) ) ) ) ) (* totalRefinado_mes2 7 ) ) )
(assert (>= (+ (* refinado_mes2_aceite5 4.9 ) (+ (* refinado_mes2_aceite4 5.1 ) (+ (* refinado_mes2_aceite3 4.3 ) (+ (* refinado_mes2_aceite2 2.8 ) (+ (* refinado_mes2_aceite1 6.1 ) (* refinado_mes2_aceite0 8.0 ) ) ) ) ) ) (* totalRefinado_mes2 3 ) ) )
(assert (<= (+ (* refinado_mes3_aceite5 4.9 ) (+ (* refinado_mes3_aceite4 5.1 ) (+ (* refinado_mes3_aceite3 4.3 ) (+ (* refinado_mes3_aceite2 2.8 ) (+ (* refinado_mes3_aceite1 6.1 ) (* refinado_mes3_aceite0 8.0 ) ) ) ) ) ) (* totalRefinado_mes3 7 ) ) )
(assert (>= (+ (* refinado_mes3_aceite5 4.9 ) (+ (* refinado_mes3_aceite4 5.1 ) (+ (* refinado_mes3_aceite3 4.3 ) (+ (* refinado_mes3_aceite2 2.8 ) (+ (* refinado_mes3_aceite1 6.1 ) (* refinado_mes3_aceite0 8.0 ) ) ) ) ) ) (* totalRefinado_mes3 3 ) ) )
(assert (= ganancias (* 230 (+ refinado_mes3_aceite5 (+ refinado_mes3_aceite4 (+ refinado_mes3_aceite3 (+ refinado_mes3_aceite2 (+ refinado_mes3_aceite1 (+ refinado_mes3_aceite0 (+ refinado_mes2_aceite5 (+ refinado_mes2_aceite4 (+ refinado_mes2_aceite3 (+ refinado_mes2_aceite2 (+ refinado_mes2_aceite1 (+ refinado_mes2_aceite0 (+ refinado_mes1_aceite5 (+ refinado_mes1_aceite4 (+ refinado_mes1_aceite3 (+ refinado_mes1_aceite2 (+ refinado_mes1_aceite1 (+ refinado_mes1_aceite0 (+ refinado_mes0_aceite5 (+ refinado_mes0_aceite4 (+ refinado_mes0_aceite3 (+ refinado_mes0_aceite2 (+ refinado_mes0_aceite1 refinado_mes0_aceite0 ) ) ) ) ) ) ) ) ) ) ) ) ) ) ) ) ) ) ) ) ) ) ) ) ) )
(assert (= costeAlmacMes (* 5 (+ iniMes_mes3_aceite5 (+ iniMes_mes3_aceite4 (+ iniMes_mes3_aceite3 (+ iniMes_mes3_aceite2 (+ iniMes_mes3_aceite1 (+ iniMes_mes3_aceite0 (+ iniMes_mes2_aceite5 (+ iniMes_mes2_aceite4 (+ iniMes_mes2_aceite3 (+ iniMes_mes2_aceite2 (+ iniMes_mes2_aceite1 (+ iniMes_mes2_aceite0 (+ iniMes_mes1_aceite5 (+ iniMes_mes1_aceite4 (+ iniMes_mes1_aceite3 (+ iniMes_mes1_aceite2 (+ iniMes_mes1_aceite1 iniMes_mes1_aceite0 ) ) ) ) ) ) ) ) ) ) ) ) ) ) ) ) ) ) ) )
(assert (= costeAceiteCompra (+ (* comprado_mes3_aceite5 100 ) (+ (* comprado_mes3_aceite4 125 ) (+ (* comprado_mes3_aceite3 120 ) (+ (* comprado_mes3_aceite2 120 ) (+ (* comprado_mes3_aceite1 110 ) (+ (* comprado_mes3_aceite0 120 ) (+ (* comprado_mes2_aceite5 80 ) (+ (* comprado_mes2_aceite4 95 ) (+ (* comprado_mes2_aceite3 100 ) (+ (* comprado_mes2_aceite2 130 ) (+ (* comprado_mes2_aceite1 140 ) (+ (* comprado_mes2_aceite0 110 ) (+ (* comprado_mes1_aceite5 115 ) (+ (* comprado_mes1_aceite4 90 ) (+ (* comprado_mes1_aceite3 110 ) (+ (* comprado_mes1_aceite2 130 ) (+ (* comprado_mes1_aceite1 130 ) (+ (* comprado_mes1_aceite0 120 ) (+ (* comprado_mes0_aceite5 115 ) (+ (* comprado_mes0_aceite4 110 ) (+ (* comprado_mes0_aceite3 130 ) (+ (* comprado_mes0_aceite2 110 ) (+ (* comprado_mes0_aceite1 120 ) (* comprado_mes0_aceite0 110 ) ) ) ) ) ) ) ) ) ) ) ) ) ) ) ) ) ) ) ) ) ) ) ) ) )
(assert (= costes (+ 4300 (+ costeAceiteCompra costeAlmacMes ) ) ) )
(assert (= beneficio (- ganancias costes ) ) )
(assert (<= (+ (ite (> refinado_mes0_aceite5 0 ) 1 0 ) (+ (ite (> refinado_mes0_aceite4 0 ) 1 0 ) (+ (ite (> refinado_mes0_aceite3 0 ) 1 0 ) (+ (ite (> refinado_mes0_aceite2 0 ) 1 0 ) (+ (ite (> refinado_mes0_aceite1 0 ) 1 0 ) (+ (ite (> refinado_mes0_aceite0 0 ) 1 0 ) refinado_mes3_aceite3 ) ) ) ) ) ) 5 ) )
(assert (<= (+ (ite (> refinado_mes1_aceite5 0 ) 1 0 ) (+ (ite (> refinado_mes1_aceite4 0 ) 1 0 ) (+ (ite (> refinado_mes1_aceite3 0 ) 1 0 ) (+ (ite (> refinado_mes1_aceite2 0 ) 1 0 ) (+ (ite (> refinado_mes1_aceite1 0 ) 1 0 ) (+ (ite (> refinado_mes1_aceite0 0 ) 1 0 ) refinado_mes3_aceite3 ) ) ) ) ) ) 5 ) )
(assert (<= (+ (ite (> refinado_mes2_aceite5 0 ) 1 0 ) (+ (ite (> refinado_mes2_aceite4 0 ) 1 0 ) (+ (ite (> refinado_mes2_aceite3 0 ) 1 0 ) (+ (ite (> refinado_mes2_aceite2 0 ) 1 0 ) (+ (ite (> refinado_mes2_aceite1 0 ) 1 0 ) (+ (ite (> refinado_mes2_aceite0 0 ) 1 0 ) refinado_mes3_aceite3 ) ) ) ) ) ) 5 ) )
(assert (<= (+ (ite (> refinado_mes3_aceite5 0 ) 1 0 ) (+ (ite (> refinado_mes3_aceite4 0 ) 1 0 ) (+ (ite (> refinado_mes3_aceite3 0 ) 1 0 ) (+ (ite (> refinado_mes3_aceite2 0 ) 1 0 ) (+ (ite (> refinado_mes3_aceite1 0 ) 1 0 ) (+ (ite (> refinado_mes3_aceite0 0 ) 1 0 ) refinado_mes3_aceite3 ) ) ) ) ) ) 5 ) )
(assert (=> (> refinado_mes0_aceite0 0 ) (>= refinado_mes0_aceite0 50 ) ) )
(assert (=> (> refinado_mes0_aceite1 0 ) (>= refinado_mes0_aceite1 50 ) ) )
(assert (=> (> refinado_mes0_aceite2 0 ) (>= refinado_mes0_aceite2 50 ) ) )
(assert (=> (> refinado_mes0_aceite3 0 ) (>= refinado_mes0_aceite3 50 ) ) )
(assert (=> (> refinado_mes0_aceite4 0 ) (>= refinado_mes0_aceite4 50 ) ) )
(assert (=> (> refinado_mes0_aceite5 0 ) (>= refinado_mes0_aceite5 50 ) ) )
(assert (=> (> refinado_mes1_aceite0 0 ) (>= refinado_mes1_aceite0 50 ) ) )
(assert (=> (> refinado_mes1_aceite1 0 ) (>= refinado_mes1_aceite1 50 ) ) )
(assert (=> (> refinado_mes1_aceite2 0 ) (>= refinado_mes1_aceite2 50 ) ) )
(assert (=> (> refinado_mes1_aceite3 0 ) (>= refinado_mes1_aceite3 50 ) ) )
(assert (=> (> refinado_mes1_aceite4 0 ) (>= refinado_mes1_aceite4 50 ) ) )
(assert (=> (> refinado_mes1_aceite5 0 ) (>= refinado_mes1_aceite5 50 ) ) )
(assert (=> (> refinado_mes2_aceite0 0 ) (>= refinado_mes2_aceite0 50 ) ) )
(assert (=> (> refinado_mes2_aceite1 0 ) (>= refinado_mes2_aceite1 50 ) ) )
(assert (=> (> refinado_mes2_aceite2 0 ) (>= refinado_mes2_aceite2 50 ) ) )
(assert (=> (> refinado_mes2_aceite3 0 ) (>= refinado_mes2_aceite3 50 ) ) )
(assert (=> (> refinado_mes2_aceite4 0 ) (>= refinado_mes2_aceite4 50 ) ) )
(assert (=> (> refinado_mes2_aceite5 0 ) (>= refinado_mes2_aceite5 50 ) ) )
(assert (=> (> refinado_mes3_aceite0 0 ) (>= refinado_mes3_aceite0 50 ) ) )
(assert (=> (> refinado_mes3_aceite1 0 ) (>= refinado_mes3_aceite1 50 ) ) )
(assert (=> (> refinado_mes3_aceite2 0 ) (>= refinado_mes3_aceite2 50 ) ) )
(assert (=> (> refinado_mes3_aceite3 0 ) (>= refinado_mes3_aceite3 50 ) ) )
(assert (=> (> refinado_mes3_aceite4 0 ) (>= refinado_mes3_aceite4 50 ) ) )
(assert (=> (> refinado_mes3_aceite5 0 ) (>= refinado_mes3_aceite5 50 ) ) )
(assert (=> (> refinado_mes0_aceite0 0 ) (> refinado_mes0_aceite2 0 ) ) )
(assert (=> (> refinado_mes0_aceite5 0 ) (> refinado_mes0_aceite2 0 ) ) )
(assert (=> (> refinado_mes1_aceite0 0 ) (> refinado_mes1_aceite2 0 ) ) )
(assert (=> (> refinado_mes1_aceite5 0 ) (> refinado_mes1_aceite2 0 ) ) )
(assert (=> (> refinado_mes2_aceite0 0 ) (> refinado_mes2_aceite2 0 ) ) )
(assert (=> (> refinado_mes2_aceite5 0 ) (> refinado_mes2_aceite2 0 ) ) )
(assert (=> (> refinado_mes3_aceite0 0 ) (> refinado_mes3_aceite2 0 ) ) )
(assert (=> (> refinado_mes3_aceite5 0 ) (> refinado_mes3_aceite2 0 ) ) )
(assert (<= 150 (+ comprado_mes3_aceite0 (+ comprado_mes2_aceite0 (+ comprado_mes1_aceite0 comprado_mes0_aceite0 ) ) ) ) )
(assert (<= 120 (+ comprado_mes3_aceite1 (+ comprado_mes2_aceite1 (+ comprado_mes1_aceite1 comprado_mes0_aceite1 ) ) ) ) )
(assert (<= 100 (+ comprado_mes3_aceite2 (+ comprado_mes2_aceite2 (+ comprado_mes1_aceite2 comprado_mes0_aceite2 ) ) ) ) )
(assert (<= 100 (+ comprado_mes3_aceite3 (+ comprado_mes2_aceite3 (+ comprado_mes1_aceite3 comprado_mes0_aceite3 ) ) ) ) )
(assert (<= 100 (+ comprado_mes3_aceite4 (+ comprado_mes2_aceite4 (+ comprado_mes1_aceite4 comprado_mes0_aceite4 ) ) ) ) )
(assert (<= 100 (+ comprado_mes3_aceite5 (+ comprado_mes2_aceite5 (+ comprado_mes1_aceite5 comprado_mes0_aceite5 ) ) ) ) )
(assert (<= 300 (+ refinado_mes0_aceite5 (+ refinado_mes0_aceite4 (+ refinado_mes0_aceite3 (+ refinado_mes0_aceite2 (+ refinado_mes0_aceite1 refinado_mes0_aceite0 ) ) ) ) ) ) )
(assert (<= 300 (+ refinado_mes1_aceite5 (+ refinado_mes1_aceite4 (+ refinado_mes1_aceite3 (+ refinado_mes1_aceite2 (+ refinado_mes1_aceite1 refinado_mes1_aceite0 ) ) ) ) ) ) )
(assert (<= 300 (+ refinado_mes2_aceite5 (+ refinado_mes2_aceite4 (+ refinado_mes2_aceite3 (+ refinado_mes2_aceite2 (+ refinado_mes2_aceite1 refinado_mes2_aceite0 ) ) ) ) ) ) )
(assert (<= 300 (+ refinado_mes3_aceite5 (+ refinado_mes3_aceite4 (+ refinado_mes3_aceite3 (+ refinado_mes3_aceite2 (+ refinado_mes3_aceite1 refinado_mes3_aceite0 ) ) ) ) ) ) )
(assert (>= beneficio 119000 ) )
(maximize beneficio)
(check-sat)
(get-objectives)
(get-value (iniMes_mes0_aceite0) )
(get-value (comprado_mes0_aceite0) )
(get-value (refinado_mes0_aceite0) )
(get-value (iniMes_mes0_aceite1) )
(get-value (comprado_mes0_aceite1) )
(get-value (refinado_mes0_aceite1) )
(get-value (iniMes_mes0_aceite2) )
(get-value (comprado_mes0_aceite2) )
(get-value (refinado_mes0_aceite2) )
(get-value (iniMes_mes0_aceite3) )
(get-value (comprado_mes0_aceite3) )
(get-value (refinado_mes0_aceite3) )
(get-value (iniMes_mes0_aceite4) )
(get-value (comprado_mes0_aceite4) )
(get-value (refinado_mes0_aceite4) )
(get-value (iniMes_mes0_aceite5) )
(get-value (comprado_mes0_aceite5) )
(get-value (refinado_mes0_aceite5) )
(get-value (totalRefinado_mes0) )
(get-value (iniMes_mes1_aceite0) )
(get-value (comprado_mes1_aceite0) )
(get-value (refinado_mes1_aceite0) )
(get-value (iniMes_mes1_aceite1) )
(get-value (comprado_mes1_aceite1) )
(get-value (refinado_mes1_aceite1) )
(get-value (iniMes_mes1_aceite2) )
(get-value (comprado_mes1_aceite2) )
(get-value (refinado_mes1_aceite2) )
(get-value (iniMes_mes1_aceite3) )
(get-value (comprado_mes1_aceite3) )
(get-value (refinado_mes1_aceite3) )
(get-value (iniMes_mes1_aceite4) )
(get-value (comprado_mes1_aceite4) )
(get-value (refinado_mes1_aceite4) )
(get-value (iniMes_mes1_aceite5) )
(get-value (comprado_mes1_aceite5) )
(get-value (refinado_mes1_aceite5) )
(get-value (totalRefinado_mes1) )
(get-value (iniMes_mes2_aceite0) )
(get-value (comprado_mes2_aceite0) )
(get-value (refinado_mes2_aceite0) )
(get-value (iniMes_mes2_aceite1) )
(get-value (comprado_mes2_aceite1) )
(get-value (refinado_mes2_aceite1) )
(get-value (iniMes_mes2_aceite2) )
(get-value (comprado_mes2_aceite2) )
(get-value (refinado_mes2_aceite2) )
(get-value (iniMes_mes2_aceite3) )
(get-value (comprado_mes2_aceite3) )
(get-value (refinado_mes2_aceite3) )
(get-value (iniMes_mes2_aceite4) )
(get-value (comprado_mes2_aceite4) )
(get-value (refinado_mes2_aceite4) )
(get-value (iniMes_mes2_aceite5) )
(get-value (comprado_mes2_aceite5) )
(get-value (refinado_mes2_aceite5) )
(get-value (totalRefinado_mes2) )
(get-value (iniMes_mes3_aceite0) )
(get-value (comprado_mes3_aceite0) )
(get-value (refinado_mes3_aceite0) )
(get-value (iniMes_mes3_aceite1) )
(get-value (comprado_mes3_aceite1) )
(get-value (refinado_mes3_aceite1) )
(get-value (iniMes_mes3_aceite2) )
(get-value (comprado_mes3_aceite2) )
(get-value (refinado_mes3_aceite2) )
(get-value (iniMes_mes3_aceite3) )
(get-value (comprado_mes3_aceite3) )
(get-value (refinado_mes3_aceite3) )
(get-value (iniMes_mes3_aceite4) )
(get-value (comprado_mes3_aceite4) )
(get-value (refinado_mes3_aceite4) )
(get-value (iniMes_mes3_aceite5) )
(get-value (comprado_mes3_aceite5) )
(get-value (refinado_mes3_aceite5) )
(get-value (totalRefinado_mes3) )
(get-value (beneficio) )
